(set-info :source |
 Generated by Alive 0.1
 More info in N. P. Lopes, D. Menendez, S. Nagarakatte, J. Regehr.
 Provably Correct Peephole Optimizations with Alive. In PLDI'15.
|)

(set-info :status unknown)
(declare-fun %Y () (_ BitVec 18))
(assert
 (let ((?x453500 ((_ zero_extend 35) %Y)))
 (let (($x453492 (and (distinct ?x453500 (_ bv0 53)) true)))
 (and $x453492 false))))
(check-sat)
